************************************************************************
file with basedata            : 
initial value random generator: 
************************************************************************
projects                      :  1
jobs (incl. supersource/sink ):  122
horizon                       :  600
RESOURCES
  - renewable                 :  4   R
  - nonrenewable              :  0   N
  - doubly constrained        :  0   D
************************************************************************
PROJECT INFORMATION:
pronr.  #jobs rel.date duedate tardcost  MPM-Time
	1     120      0       10        1       10
************************************************************************
PRECEDENCE RELATIONS:
jobnr.    #modes  #successors   successors
   1        1         15           2   3   4   5   6   7   8   9  10  11  12  13  14  15  16 
   2        1          1          17 
   3        1          1          18 
   4        1          1          19 
   5        1          1          20 
   6        1          1          21 
   7        1          1          22 
   8        1          1          23 
   9        1          1          24 
  10        1          1          25 
  11        1          1          26 
  12        1          5          39  40  41  42  43 
  13        1          3          59  60  61 
  14        1          5          82  83  84  85  86 
  15        1          5         110 111 112 113 114 
  16        1          2         119 120 
  17        1          5          39  40  41  42  43 
  18        1          5          39  40  41  42  43 
  19        1          3          54  55  56 
  20        1         10          64  65  66  67  68  69  70  71  72  73 
  21        1         10          64  65  66  67  68  69  70  71  72  73 
  22        1         10          64  65  66  67  68  69  70  71  72  73 
  23        1         10          64  65  66  67  68  69  70  71  72  73 
  24        1         10          64  65  66  67  68  69  70  71  72  73 
  25        1         11          87  88  89  90  91  92  93  94  95  96  97 
  26        1         12          27  28  29  30  31  32  33  34  35  36  37  38 
  27        1          5          39  40  41  42  43 
  28        1          1          46 
  29        1          1          47 
  30        1          1          48 
  31        1          1          49 
  32        1          1          50 
  33        1          1          51 
  34        1          1          52 
  35        1          1          53 
  36        1          5          82  83  84  85  86 
  37        1          2         119 120 
  38        1          1         122 
  39        1          1          44 
  40        1          1          45 
  41        1          3          59  60  61 
  42        1         10          64  65  66  67  68  69  70  71  72  73 
  43        1          1         122 
  44        1          3          54  55  56 
  45        1          3          59  60  61 
  46        1         11          87  88  89  90  91  92  93  94  95  96  97 
  47        1         11          87  88  89  90  91  92  93  94  95  96  97 
  48        1         11          87  88  89  90  91  92  93  94  95  96  97 
  49        1          5          82  83  84  85  86 
  50        1          2         119 120 
  51        1          5         110 111 112 113 114 
  52        1          5         110 111 112 113 114 
  53        1         11          87  88  89  90  91  92  93  94  95  96  97 
  54        1          1          57 
  55        1          1          58 
  56        1          1         122 
  57        1          3          59  60  61 
  58        1          3          59  60  61 
  59        1          1          62 
  60        1          1          63 
  61        1          1         122 
  62        1         10          64  65  66  67  68  69  70  71  72  73 
  63        1         10          64  65  66  67  68  69  70  71  72  73 
  64        1          1          74 
  65        1          1          75 
  66        1          1          76 
  67        1          1          77 
  68        1          1          78 
  69        1          1          79 
  70        1          1          80 
  71        1          1          81 
  72        1         11          87  88  89  90  91  92  93  94  95  96  97 
  73        1          1         122 
  74        1          5          82  83  84  85  86 
  75        1          5          82  83  84  85  86 
  76        1          5          82  83  84  85  86 
  77        1         11          87  88  89  90  91  92  93  94  95  96  97 
  78        1         11          87  88  89  90  91  92  93  94  95  96  97 
  79        1         11          87  88  89  90  91  92  93  94  95  96  97 
  80        1         11          87  88  89  90  91  92  93  94  95  96  97 
  81        1         11          87  88  89  90  91  92  93  94  95  96  97 
  82        1         11          87  88  89  90  91  92  93  94  95  96  97 
  83        1          1         100 
  84        1          1         109 
  85        1          2         119 120 
  86        1          1         122 
  87        1          1          98 
  88        1          1          99 
  89        1          1         101 
  90        1          1         102 
  91        1          1         103 
  92        1          1         104 
  93        1          1         105 
  94        1          1         106 
  95        1          1         107 
  96        1          1         108 
  97        1          5         110 111 112 113 114 
  98        1          5         110 111 112 113 114 
  99        1          5         110 111 112 113 114 
 100        1          5         110 111 112 113 114 
 101        1          5         110 111 112 113 114 
 102        1          2         119 120 
 103        1          2         119 120 
 104        1          1         122 
 105        1          1         122 
 106        1          1         122 
 107        1          1         122 
 108        1          2         119 120 
 109        1          2         119 120 
 110        1          1         115 
 111        1          1         116 
 112        1          1         117 
 113        1          1         118 
 114        1          2         119 120 
 115        1          2         119 120 
 116        1          2         119 120 
 117        1          1         122 
 118        1          1         122 
 119        1          1         121 
 120        1          1         122 
 121        1          1         122 
 122        1          0         
************************************************************************
REQUESTS/DURATIONS:
jobnr. mode duration  R 1  R 2  R 3  R 4
------------------------------------------------------------------------
  1      1     0       0    0    0    0
  2      1     7       6    8    0    0
  3      1     5       0    2    0    5
  4      1    10       2    0    3    8
  5      1     2       5    0    0    0
  6      1     3       5    3    3    0
  7      1     1       8    6    3    0
  8      1     1       0    0    6    9
  9      1     5       7    0    0    0
 10      1     3       6    0    9    0
 11      1     3       3    4    0    5
 12      1     3       1    0    7    9
 13      1     5       0    8    0    3
 14      1    10       2    4    6    0
 15      1     4       0    0    3    8
 16      1     3       0    5    0    6
 17      1     6       0    6    3    0
 18      1     6       0    0    0    0
 19      1     1       0    0    0    0
 20      1     1       0    0    9    6
 21      1     2      10    0    5   10
 22      1     3       4    7    0    2
 23      1     5       0    0    0    0
 24      1     9       0    5    2    0
 25      1     3       0   10    1    1
 26      1     6       8    0    0   10
 27      1     9       0    5    9    0
 28      1     9       0    0    1    0
 29      1     2       0    0    0    9
 30      1     4       9    4    0    0
 31      1     4       0    0    3    0
 32      1     1       0    0   10    0
 33      1     7       0    0    8    0
 34      1     1       0    0    0    0
 35      1     5       6    0    0    0
 36      1    10       0    0    4    5
 37      1     1       0   10    0    0
 38      1     6       8    0    3    1
 39      1     5       0    0    0    9
 40      1     8       1    2   10    6
 41      1     8       4    6    0    0
 42      1     3       6    8    0    1
 43      1     1       0    6    5    4
 44      1     9       0    0    3    1
 45      1     4       0    8    0    0
 46      1     3       0    0    0    0
 47      1     7       3    5    5   10
 48      1     2       3    0    0    5
 49      1     5       0    0    0   10
 50      1     2       0    0    0    0
 51      1     6       4   10    0    0
 52      1     2       2    0    0    0
 53      1     7       3    7    4    0
 54      1     1       0    0    0    0
 55      1     2       4    0    1    0
 56      1     2       0    1    0    0
 57      1     4       0    0    1    0
 58      1     3       1    2    5    0
 59      1     9       0    0    0    0
 60      1     8       0   10    0    6
 61      1     2       0    0    0    9
 62      1     4       3    4    9    0
 63      1     7       2    0    0    0
 64      1     3       0    0    0    8
 65      1     8       0    9    0    5
 66      1     8       0    0    7    2
 67      1     6       8    0    4    0
 68      1     6       6    0    8    0
 69      1    10       0    9    0    0
 70      1     2       0    0    0    0
 71      1     9       0    5    0    0
 72      1     3       0    0    6   10
 73      1     7       7    9    8    0
 74      1     5       0    0    7   10
 75      1     3       0    0    2    6
 76      1     2       0    0    0    0
 77      1    10       5    1    4    2
 78      1     6       0    7    9    0
 79      1     7       0    2    9    9
 80      1     5       9    0    0    0
 81      1     4       0    8    0    0
 82      1     4       0    8    0    0
 83      1     2       3   10    0    2
 84      1     3      10    0    3    0
 85      1     3       0    9    0    0
 86      1     3       0    8    0    1
 87      1     4       3    0    0    2
 88      1     7       0    0    0    0
 89      1     3       0   10    8    3
 90      1     8       5    0    0    9
 91      1     4       0   10    0    6
 92      1     7       0    0    0    0
 93      1     5       1    8    6    5
 94      1     2       3    2    0    8
 95      1    10       7    0    6   10
 96      1     1       7    0    9    2
 97      1     9      10    0    0    6
 98      1     9       0    3    6    0
 99      1     9       0   10    0    6
100      1     6       0    0    0    8
101      1     1       6    0    0    1
102      1     2       0    9    7    6
103      1     9       0    0    9    0
104      1     2       8    0    5    4
105      1     8       9    0    9    7
106      1     5       2    0    2    0
107      1     8       0    0    1    0
108      1     4       1    1    3    6
109      1     6      10    0    0    4
110      1     3       0    3    0    2
111      1     8       2    0    0    4
112      1     9      10    3    0    0
113      1     1       0   10    0    0
114      1     4       0    5    0    0
115      1     4       1    0    3    2
116      1     9       0    5    0    0
117      1     3       0    0    0    3
118      1     4       0    0    9    0
119      1     5       3    9    0    6
120      1     8       8    1    0    7
121      1     7       0    6    5   10
122      1     0       0    0    0    0
************************************************************************
RESOURCEAVAILABILITIES:
  R 1  R 2  R 3  R 4
   10   20   16   19
************************************************************************
